38867.0
0 0 1 1 1 1 0 1 0 1 1 1 1 0 0 0 0 1 0 1 1 1 0 0 1 0 0 1 1 0 


4 29 61 94 126 156 163 175 182 190 191 
13 16 46 64 95 109 136 137 158 159 160 168 198 
10 28 32 43 60 84 104 106 111 167 174 178 193 
22 66 74 77 87 134 145 164 166 170 180 187 197 

0 15 40 59 62 70 83 89 92 103 117 149 196 

37 41 57 73 82 120 124 135 185 
12 24 75 80 85 139 152 162 173 177 179 
56 65 93 96 121 127 132 142 143 144 155 184 195 
5 35 42 55 69 71 97 102 113 114 140 192 




67 81 98 118 122 129 151 153 176 188 194 199 

1 27 30 31 45 48 72 86 91 110 123 128 172 
17 36 44 49 54 63 76 78 115 119 133 154 171 
2 6 21 33 39 47 53 101 125 147 157 169 181 189 


23 38 50 51 52 79 105 107 131 146 148 150 


3 7 8 18 19 20 25 26 34 58 88 108 112 141 
9 11 14 68 90 99 100 116 130 138 161 165 183 186 

